p tw 153 166
1 2
2 66
3 14
4 5
5 6
6 7
7 8
8 9
9 10
10 11
11 12
12 13
13 15
14 25
15 16
16 17
17 18
17 99
18 19
19 20
20 21
21 22
22 23
23 24
24 26
25 36
26 27
27 28
28 29
29 30
29 37
30 31
31 32
32 33
33 34
34 35
35 21
36 47
36 58
37 38
38 39
39 40
39 42
40 41
41 51
42 43
43 44
44 45
45 46
46 48
47 60
48 49
49 50
50 51
51 52
52 53
53 54
54 55
55 56
56 57
57 59
58 62
59 60
60 61
62 63
63 64
64 65
65 67
66 77
67 68
68 69
69 70
69 80
70 71
71 72
72 73
73 74
74 75
75 76
76 78
77 88
78 79
79 112
80 81
81 82
82 83
83 84
84 85
85 86
86 87
87 89
88 99
89 90
90 91
91 92
92 93
92 94
93 60
94 95
95 96
96 97
97 98
98 100
99 110
100 101
101 102
101 83
102 103
103 104
104 105
105 106
106 107
107 108
108 109
109 111
110 121
111 99
112 113
113 114
114 115
115 116
115 99
116 117
117 118
117 99
118 119
119 120
119 99
120 122
121 132
122 123
122 99
123 124
124 125
125 126
126 127
127 128
128 129
129 130
130 131
131 133
132 143
133 134
133 99
134 135
135 136
136 137
137 138
138 139
139 140
140 141
141 142
142 144
143 3
144 145
144 99
145 146
146 147
147 148
148 149
149 150
150 151
151 152
152 153
152 99
153 4
